50

100 15 301
100 2 347
99 44 305
96 16 354
96 21 306
93 21 286
91 23 322
90 8 339
90 25 318
87 18 315
84 38 254
83 25 269
80 28 343
80 36 332
80 32 257
75 29 272
74 24 324
72 11 277
72 32 332
71 29 311
71 18 246
70 28 306
69 25 292
66 6 339
65 20 353
63 29 273
60 25 282
58 29 279
57 13 249
56 13 354
54 5 336
54 18 317
53 27 297
53 10 359
53 19 192
51 7 351
51 6 162
49 13 199
46 11 344
43 14 230
40 3 151
39 11 356
38 5 209
37 7 347
37 1 317
34 4 166
33 13 248
33 11 147
31 12 207
31 2 316
